NAME: tsp_339
COMMENT: Random TSP instance
TYPE: TSP
DIMENSION: 50
EDGE_WEIGHT_TYPE: EUC_2D
NODE_COORD_SECTION
1 92 131
2 737 835
3 257 650
4 342 35
5 99 183
6 329 312
7 879 980
8 127 737
9 222 970
10 230 561
11 260 395
12 719 81
13 628 907
14 897 866
15 984 932
16 950 45
17 761 352
18 18 224
19 514 164
20 460 959
21 159 607
22 362 299
23 267 271
24 756 994
25 632 40
26 428 981
27 231 883
28 176 279
29 591 69
30 415 241
31 329 856
32 845 721
33 687 727
34 192 76
35 893 890
36 401 287
37 583 240
38 852 677
39 352 254
40 150 737
41 193 766
42 444 493
43 353 779
44 979 784
45 292 52
46 149 350
47 769 53
48 301 687
49 15 597
50 277 589
